
List of user-set options:

                                    Name   Value                used
                           linear_solver = ma57                  yes
                  ma57_automatic_scaling = yes                   yes
                                max_iter = 2000                  yes
                             mu_strategy = adaptive              yes
                             output_file = DynamicOptimization_lMtildestateIPOPTinfo.txt  yes
                             print_level = 5                     yes
                      print_user_options = yes                   yes
                                     tol = 1e-005                yes
This is Ipopt version 3.11.0, running with linear solver ma57.

Number of nonzeros in equality constraint Jacobian...:    37801
Number of nonzeros in inequality constraint Jacobian.:       36
Number of nonzeros in Lagrangian Hessian.............:    15750

Total number of variables............................:     8209
                     variables with only lower bounds:        0
                variables with lower and upper bounds:     8209
                     variables with only upper bounds:        0
Total number of equality constraints.................:     6301
Total number of inequality constraints...............:       19
        inequality constraints with only lower bounds:        0
   inequality constraints with lower and upper bounds:       19
        inequality constraints with only upper bounds:        0

iter    objective    inf_pr   inf_du lg(mu)  ||d||  lg(rg) alpha_du alpha_pr  ls
   0 9.9999900e-003 1.65e+003 2.69e-002   0.0 0.00e+000    -  0.00e+000 0.00e+000   0
   1 3.4365863e-002 1.56e+003 5.46e+000  -5.9 1.51e+000    -  2.35e-002 5.92e-002h  1
   2 1.3720703e+000 1.52e+003 1.28e+002  -0.3 5.00e+001    -  1.94e-002 2.67e-002f  1
   3 1.4229021e+000 1.50e+003 1.27e+002   0.0 6.54e+000   2.0 1.48e-002 7.78e-003h  1
   4 1.4451002e+000 1.50e+003 1.26e+002   0.0 1.17e+001   1.5 6.55e-003 1.89e-003f  1
   5 1.5432035e+000 1.49e+003 1.96e+002   0.8 2.15e+001   1.9 4.19e-003 4.56e-003f  1
   6 1.5702191e+000 1.49e+003 3.18e+002   0.5 8.50e+000   2.4 7.29e-003 3.74e-003h  1
   7 1.7630274e+000 1.46e+003 7.54e+003   0.6 1.22e+001   1.9 3.97e-003 1.58e-002f  1
   8 1.9638434e+000 1.43e+003 8.21e+003   1.7 9.26e+000   3.2 2.10e-002 2.17e-002f  1
   9 2.0908286e+000 1.40e+003 1.03e+004   1.7 5.89e+000   3.7 5.90e-002 2.16e-002h  1
iter    objective    inf_pr   inf_du lg(mu)  ||d||  lg(rg) alpha_du alpha_pr  ls
  10 2.2221220e+000 1.36e+003 2.04e+004   1.6 4.85e+000   4.1 1.23e-001 2.71e-002h  1
  11 2.5583103e+000 1.30e+003 1.83e+005   2.5 7.86e+000   4.5 6.67e-001 4.28e-002h  1
  12 2.5447678e+000 1.30e+003 1.83e+005  -3.7 4.72e+000   4.0 6.56e-009 8.45e-009H  1
  13 2.6288934e+000 1.30e+003 1.85e+005  -3.7 8.17e+000   3.6 5.63e-008 6.42e-009H  1
  14 2.9380198e+000 1.25e+003 8.44e+005   2.2 7.84e+000   4.0 3.81e-002 3.94e-002f  1
  15 3.1425590e+000 1.18e+003 7.99e+005  -3.7 6.15e+000   4.4 4.86e-002 5.36e-002h  1
  16 3.2485341e+000 1.09e+003 7.32e+005   2.6 1.40e+000   4.8 6.91e-002 8.42e-002f  1
  17 3.2825754e+000 1.05e+003 7.05e+005   2.1 9.55e-001   5.3 1.35e-001 3.69e-002h  1
  18 2.9100184e+000 9.91e+003 1.03e+008   3.1 1.48e+001   4.8 5.37e-002 4.80e-002f  1
  19 2.8842666e+000 6.73e+003 7.02e+007   2.3 1.30e+000   4.3 1.08e-001 3.86e-001f  1
iter    objective    inf_pr   inf_du lg(mu)  ||d||  lg(rg) alpha_du alpha_pr  ls
  20 3.2407857e+000 5.56e+003 5.80e+007   2.3 1.89e+000   3.8 3.79e-001 1.89e-001f  1
  21 4.1185350e+000 4.61e+003 4.81e+007   2.3 4.70e+000   3.3 2.67e-001 1.87e-001f  1
  22 5.7500062e+000 4.10e+003 4.28e+007   2.3 1.39e+001    -  5.12e-002 1.17e-001f  1
  23 6.1338938e+000 3.36e+003 3.51e+007   2.3 1.94e+000   3.8 3.96e-001 1.98e-001f  1
  24 7.4223839e+000 2.40e+003 2.51e+007   2.3 3.85e+000   3.3 3.48e-001 3.34e-001f  1
  25 8.5524103e+000 1.25e+003 1.32e+007   2.3 1.79e+000   3.7 3.71e-001 6.31e-001f  1
  26 8.7383043e+000 9.56e+002 1.01e+007   2.3 1.21e+000   4.1 1.90e-001 2.63e-001f  1
  27 8.9582644e+000 3.07e+002 4.71e+006   2.1 3.80e-001   4.6 1.00e+000 1.00e+000f  1
  28 9.3283058e+000 8.32e+001 3.05e+006   2.2 3.70e-001   4.1 5.96e-001 1.00e+000f  1
  29 9.3587058e+000 1.28e+001 8.11e+005   1.6 1.14e-001   4.5 1.00e+000 1.00e+000f  1
iter    objective    inf_pr   inf_du lg(mu)  ||d||  lg(rg) alpha_du alpha_pr  ls
  30 9.3631342e+000 4.00e-001 3.86e+004   0.3 2.93e-002   4.0 1.00e+000 1.00e+000f  1
  31 9.3634325e+000 4.20e-004 4.58e+001  -1.4 1.34e-003   3.6 9.91e-001 1.00e+000h  1
  32 9.3626571e+000 3.37e-008 9.54e-001  -3.1 7.75e-004   3.1 1.00e+000 1.00e+000h  1
  33 9.3602747e+000 2.02e-007 9.77e-001  -5.0 2.38e-003   2.6 1.00e+000 1.00e+000f  1
  34 9.3531254e+000 1.84e-006 9.77e-001  -6.6 7.15e-003   2.1 1.00e+000 1.00e+000f  1
  35 9.3316782e+000 1.65e-005 9.77e-001  -8.3 2.14e-002   1.7 1.00e+000 1.00e+000f  1
  36 9.2673461e+000 1.49e-004 9.77e-001  -9.8 6.43e-002   1.2 1.00e+000 1.00e+000f  1
  37 9.0744333e+000 1.35e-003 9.77e-001 -11.0 1.93e-001   0.7 1.00e+000 1.00e+000f  1
  38 8.4964811e+000 1.23e-002 9.75e-001 -11.0 5.78e-001   0.2 1.00e+000 1.00e+000f  1
  39 7.4136574e+000 5.06e-002 9.73e-001  -9.0 1.73e+000  -0.2 1.00e+000 6.27e-001f  1
iter    objective    inf_pr   inf_du lg(mu)  ||d||  lg(rg) alpha_du alpha_pr  ls
  40 7.4027698e+000 5.05e-002 9.73e-001  -7.0 5.10e+000  -0.7 1.00e+000 2.13e-003h  1
  41 7.2314078e+000 5.09e-002 9.72e-001  -5.0 1.50e+001  -1.2 1.00e+000 1.15e-002f  1
  42 7.0554083e+000 5.23e-002 9.72e-001  -3.2 4.16e+001  -1.7 1.00e+000 4.23e-003f  1
  43 3.9342341e+000 3.16e+000 9.57e-001  -2.0 2.04e+002    -  1.25e-002 1.53e-002f  1
  44 3.9342331e-002 3.08e+000 9.20e-001  -3.1 1.00e+002    -  2.07e-002 3.89e-002f  1
  45 7.1210505e-002 7.02e+000 9.24e-001  -2.4 1.48e+001  -2.2 6.36e-002 8.16e-002h  1
  46 5.1542921e-005 6.73e+000 8.84e-001  -3.1 1.67e+000    -  1.47e-002 4.27e-002h  1
  47 3.2346397e-005 5.43e+000 7.20e-001  -4.6 1.24e+000    -  3.31e-001 2.48e-001h  1
  48 4.6411657e-005 5.01e+000 6.62e-001  -4.6 2.10e+000    -  2.45e-001 8.56e-002h  1
  49 6.4117081e-005 4.65e+000 6.13e-001  -5.4 1.17e+000    -  1.94e-001 7.87e-002h  3
iter    objective    inf_pr   inf_du lg(mu)  ||d||  lg(rg) alpha_du alpha_pr  ls
  50 6.4213670e-002 3.84e+000 5.04e-001  -3.5 9.68e-001  -2.6 1.23e-003 2.05e-001h  2
  51 7.4832340e-001 8.13e-001 2.76e-001  -4.1 7.54e-001  -2.2 7.97e-001 9.07e-001h  1
  52 7.4853069e-001 1.12e+000 1.30e-001  -3.9 5.90e-001  -2.7 1.62e-001 5.96e-001H  1
  53 6.4865167e-001 2.15e+000 3.74e-002  -4.2 2.86e-001    -  8.16e-001 1.00e+000h  1
  54 6.4740937e-001 1.53e+001 1.45e-001  -4.2 6.56e-001    -  7.72e-001 1.00e+000h  1
  55 1.0724162e+000 1.29e+001 9.10e-001  -3.2 1.13e+000  -3.2 2.53e-001 5.75e-001f  1
  56 1.0628024e+000 2.87e+000 7.45e-001  -3.7 3.79e-001  -1.8 6.34e-001 1.00e+000h  1
  57 1.0204212e+000 1.79e-001 1.28e-001  -3.7 1.33e-001  -1.4 1.00e+000 1.00e+000h  1
  58 6.4068762e-001 4.64e+000 3.58e-002  -4.0 3.80e-001    -  9.97e-001 1.00e+000h  1
  59 6.9487195e-001 1.64e-001 1.64e-003  -4.1 5.42e-002  -1.9 1.00e+000 1.00e+000h  1
iter    objective    inf_pr   inf_du lg(mu)  ||d||  lg(rg) alpha_du alpha_pr  ls
  60 6.2897456e-001 1.75e-001 1.30e-003  -4.5 6.59e-002  -2.4 1.00e+000 1.00e+000h  1
  61 5.6568832e-001 2.92e-001 4.41e-003  -5.0 1.21e-001  -2.8 1.00e+000 1.00e+000h  1
  62 5.5423447e-001 5.95e-001 2.91e-003  -5.3 1.15e-001  -3.3 1.00e+000 1.00e+000h  1
  63 5.5081572e-001 9.55e-002 1.32e-003  -5.6 1.69e-001  -3.8 9.98e-001 1.00e+000h  1
  64 5.5445975e-001 3.94e-002 5.49e-004  -5.4 3.58e-001  -4.3 1.00e+000 1.00e+000h  1
  65 5.5023623e-001 5.91e-002 3.89e-004  -5.7 8.87e-002    -  9.77e-001 1.00e+000h  1
  66 5.5156847e-001 3.73e-002 8.78e-003  -5.4 8.64e-002    -  1.00e+000 4.57e-001h  1
  67 5.4955475e-001 2.27e-002 2.38e-004  -5.8 8.58e-002    -  1.00e+000 1.00e+000h  1
  68 5.5223978e-001 5.70e-003 1.04e-002  -5.4 1.76e-001  -2.9 1.00e+000 8.02e-001h  1
  69 5.5149827e-001 6.37e-003 4.92e-005  -5.6 3.92e-002    -  1.00e+000 1.00e+000h  1
iter    objective    inf_pr   inf_du lg(mu)  ||d||  lg(rg) alpha_du alpha_pr  ls
  70 5.4954925e-001 3.34e-003 3.51e-004  -5.8 9.62e-002  -3.4 1.00e+000 1.00e+000h  1
  71 5.5028257e-001 2.82e-003 4.84e-002  -5.5 1.12e-001    -  9.89e-001 3.41e-001h  1
  72 5.5044257e-001 2.77e-003 1.26e-001  -5.3 2.47e-001    -  9.87e-001 3.18e-002h  1
  73 5.4963466e-001 6.03e-004 2.12e-005  -5.8 2.10e-002  -3.0 1.00e+000 1.00e+000h  1
  74 5.5008891e-001 8.25e-004 1.36e-002  -5.4 1.97e+000    -  1.36e-001 1.24e-001h  1
  75 5.4960056e-001 3.70e-004 3.26e-003  -5.8 7.00e-003  -2.6 1.00e+000 8.13e-001h  1
  76 5.4889982e-001 1.55e-003 4.39e-005  -5.9 3.73e-002  -3.0 1.00e+000 1.00e+000f  1
  77 5.4791440e-001 1.00e-003 1.24e-004  -6.2 2.93e-002  -2.6 1.00e+000 1.00e+000h  1
  78 5.5138128e-001 2.71e-002 1.15e-003  -5.6 1.77e-001    -  1.00e+000 1.00e+000h  1
  79 5.5053148e-001 2.80e-003 3.58e-005  -5.7 2.52e-002  -3.1 1.00e+000 1.00e+000h  1
iter    objective    inf_pr   inf_du lg(mu)  ||d||  lg(rg) alpha_du alpha_pr  ls
  80 5.5048446e-001 1.93e-003 3.81e-002  -5.7 9.37e-001    -  2.40e-001 3.15e-001h  1
  81 5.5044832e-001 4.77e-003 4.79e-004  -5.7 6.58e-002    -  1.00e+000 1.00e+000f  1
  82 5.5043530e-001 3.12e-003 8.33e-003  -5.7 6.11e-001    -  3.80e-001 3.47e-001h  1
  83 5.5043386e-001 6.89e-006 2.14e-002  -5.7 6.64e-002    -  4.19e-001 1.00e+000h  1
  84 5.5022359e-001 2.21e-004 2.34e-004  -5.7 2.39e-002    -  1.00e+000 1.00e+000h  1
  85 5.4803490e-001 2.97e-003 1.18e-003  -6.2 2.97e-002  -2.7 1.00e+000 9.80e-001h  1
  86 5.4785887e-001 7.65e-003 2.61e-001  -6.3 4.37e-001    -  1.74e-001 3.76e-001h  1
  87 5.5057714e-001 2.54e-002 1.35e-002  -5.7 2.13e-001    -  1.00e+000 1.00e+000f  1
  88 5.5052876e-001 2.47e-002 5.23e-001  -5.8 1.04e+001    -  1.39e-002 2.96e-002h  1
  89 5.4977897e-001 7.27e-003 2.07e-002  -5.8 1.23e-001    -  1.00e+000 1.00e+000h  1
iter    objective    inf_pr   inf_du lg(mu)  ||d||  lg(rg) alpha_du alpha_pr  ls
  90 5.4976671e-001 3.86e-003 9.49e-002  -5.8 3.71e-001    -  1.00e+000 4.69e-001h  1
  91 5.4976259e-001 8.26e-006 1.95e-002  -5.8 7.95e-002    -  1.00e+000 1.00e+000h  1
  92 5.4852558e-001 8.48e-003 3.98e-002  -6.3 1.84e-001    -  1.00e+000 5.46e-001h  1
  93 5.4740953e-001 1.10e-002 2.54e-002  -6.4 1.09e-001    -  1.00e+000 1.00e+000h  1
  94 5.4693469e-001 1.78e-003 2.33e-003  -6.9 9.76e-002    -  1.00e+000 1.00e+000h  1
  95 5.4677311e-001 5.19e-004 1.57e-004  -7.6 3.46e-002    -  1.00e+000 1.00e+000h  1
  96 5.4674904e-001 4.93e-005 5.05e-006  -7.9 5.74e-003    -  1.00e+000 1.00e+000h  1
  97 5.4673542e-001 9.29e-006 9.21e-005  -8.3 2.81e-003    -  9.93e-001 1.00e+000h  1
  98 5.4672924e-001 4.70e-006 2.81e-007  -9.0 1.33e-003    -  1.00e+000 1.00e+000h  1

Number of Iterations....: 98

                                   (scaled)                 (unscaled)
Objective...............:  5.4672924244308008e-001   5.4672924244308008e-001
Dual infeasibility......:  2.8107893630270700e-007   2.8107893630270700e-007
Constraint violation....:  1.1843429300603876e-006   4.6972908214204523e-006
Complementarity.........:  2.6137271543606180e-009   2.6137271543606180e-009
Overall NLP error.......:  1.1843429300603876e-006   4.6972908214204523e-006


Number of objective function evaluations             = 110
Number of objective gradient evaluations             = 99
Number of equality constraint evaluations            = 111
Number of inequality constraint evaluations          = 111
Number of equality constraint Jacobian evaluations   = 99
Number of inequality constraint Jacobian evaluations = 99
Number of Lagrangian Hessian evaluations             = 98
Total CPU secs in IPOPT (w/o function evaluations)   =      4.980
Total CPU secs in NLP function evaluations           =      6.463

EXIT: Optimal Solution Found.
